n_res = 4;
rc = [ 0, 0, 0, 0 ];
n_tasks = 30;
d = [ 8, 2, 6, 10, 1, 8, 6, 8, 8, 1, 1, 4, 3, 4, 5, 7, 6, 5, 6, 10, 8, 8, 2, 8, 4, 2, 10, 6, 9, 7 ];
rr = [| 0, 0, 0, 0, 0, 0, 0, 0, 0, 0, 0, 0, 0, 0, 0, 0, 0, 0, 0, 0, 0, 0, 0, 0, 0, 0, 0, 0, 0, 0
      | 0, 0, 0, 0, 0, 0, 0, 0, 0, 0, 0, 0, 0, 0, 0, 0, 0, 0, 0, 0, 0, 0, 0, 0, 0, 0, 0, 0, 0, 0
      | 0, 0, 0, 0, 0, 0, 0, 0, 0, 0, 0, 0, 0, 0, 0, 0, 0, 0, 0, 0, 0, 0, 0, 0, 0, 0, 0, 0, 0, 0
      | 0, 0, 0, 0, 0, 0, 0, 0, 0, 0, 0, 0, 0, 0, 0, 0, 0, 0, 0, 0, 0, 0, 0, 0, 0, 0, 0, 0, 0, 0 |];
suc = [ { 15, 17, 18 },
       { 5, 12, 14 },
       { 4, 6, 27 },
       { 7, 11 },
       { 8, 11, 22 },
       { 13, 16 },
       { 15, 17 },
       { 9, 10 },
       { 16 },
       { 28 },
       { 17, 18, 25 },
       { 26, 27, 30 },
       { 14, 21 },
       { 22, 29 },
       { 22, 29 },
       { 18, 20, 23 },
       { 19, 24 },
       { 24 },
       { 23 },
       { 25 },
       { 24, 25 },
       { 23 },
       { 30 },
       { 26 },
       { 26, 29, 30 },
       { 28 },
       { 28 },
       {  },
       {  },
       {  } ];
